15 4 
3374	3374	3374	3374	
25	29	56	
872	329	455	
494	646	939	
227	60	87	
821	821	1426	
327	724	1337	
48	677	934	
354	78	106	
851	622	755	
977	878	1742	
233	525	833	
774	336	482	
436	334	387	
751	689	1222	
634	1	1	
